language ESSENCE' 1.0
letting lastdx=100
letting cage be [
[64,5,3,4,3,4,2,5,2,5,1],
[46,5,15,5,14,4,14,3,14,0,0],
[22,16,15,15,15,0,0, 0,0, 0,0],
[30,12,10,13,10,14,10,0,0, 0,0],
[27,3,8,3,9,3,10,0,0, 0,0],
[21,13,3,13,2,13,1,14,1,0,0],
[5,3,7,0,0, 0,0, 0,0, 0,0],
[1,2,10,0,0, 0,0, 0,0, 0,0],
[11,11,1,0,0, 0,0, 0,0, 0,0],
[11,16,12,15,12,0,0, 0,0, 0,0],
[30,8,16,9,16,9,15,0,0, 0,0],
[11,1,14,0,0, 0,0, 0,0, 0,0],
[7,8,14,0,0, 0,0, 0,0, 0,0],
[46,12,2,12,1,12,3,11,3,11,4],
[43,12,15,13,15,14,15,14,16,0,0],
[17,16,16,15,16,0,0, 0,0, 0,0],
[14,2,8,0,0, 0,0, 0,0, 0,0],
[14,7,6,0,0, 0,0, 0,0, 0,0],
[12,16,1,0,0, 0,0, 0,0, 0,0],
[34,2,9,1,9,1,10,1,11,0,0],
[4,9,11,0,0, 0,0, 0,0, 0,0],
[21,5,8,6,8,0,0, 0,0, 0,0],
[1,11,7,0,0, 0,0, 0,0, 0,0],
[8,4,4,0,0, 0,0, 0,0, 0,0],
[39,5,13,6,13,6,14,0,0, 0,0],
[37,6,10,6,11,5,11,5,12,6,12],
[6,13,8,0,0, 0,0, 0,0, 0,0],
[16,13,11,0,0, 0,0, 0,0, 0,0],
[32,6,5,6,4,6,3,7,3,0,0],
[36,9,4,9,3,9,2,0,0, 0,0],
[27,16,5,16,6,15,6,15,5,0,0],
[2,2,1,0,0, 0,0, 0,0, 0,0],
[31,10,6,10,7,9,7,0,0, 0,0],
[48,11,11,11,10,10,10,10,9,11,9],
[34,2,4,2,5,1,5,0,0, 0,0],
[21,14,4,14,3,0,0, 0,0, 0,0],
[19,13,16,12,16,11,16,10,16,10,15],
[6,11,6,0,0, 0,0, 0,0, 0,0],
[22,4,11,4,12,4,13,3,13,0,0],
[8,1,4,1,3,0,0, 0,0, 0,0],
[26,4,7,4,8,4,9,0,0, 0,0],
[29,8,8,7,8,7,7,0,0, 0,0],
[53,9,10,9,9,8,9,8,10,7,10],
[15,15,3,16,3,16,2,0,0, 0,0],
[29,14,12,14,13,13,13,0,0, 0,0],
[10,11,13,11,12,0,0, 0,0, 0,0],
[19,11,2,10,2,10,3,0,0, 0,0],
[52,1,7,1,8,2,7,2,6,1,6],
[7,5,10,4,10,0,0, 0,0, 0,0],
[15,3,4,3,5,0,0, 0,0, 0,0],
[26,15,7,16,7,0,0, 0,0, 0,0],
[25,6,6,6,7,5,7,5,6,0,0],
[14,15,1,0,0, 0,0, 0,0, 0,0],
[20,12,4,12,5,0,0, 0,0, 0,0],
[40,3,1,4,1,3,2,3,3,0,0],
[19,2,2,2,3,0,0, 0,0, 0,0],
[62,3,11,2,11,2,12,3,12,1,12],
[12,6,2,0,0, 0,0, 0,0, 0,0],
[9,1,2,1,1,0,0, 0,0, 0,0],
[32,16,11,15,11,14,11,15,10,0,0],
[9,11,15,0,0, 0,0, 0,0, 0,0],
[24,13,6,13,7,0,0, 0,0, 0,0],
[6,6,1,0,0, 0,0, 0,0, 0,0],
[26,7,4,7,5,8,5,0,0, 0,0],
[4,13,9,0,0, 0,0, 0,0, 0,0],
[7,16,8,0,0, 0,0, 0,0, 0,0],
[42,10,13,10,12,10,11,9,12,0,0],
[11,16,10,16,9,0,0, 0,0, 0,0],
[5,8,12,0,0, 0,0, 0,0, 0,0],
[46,3,16,2,16,1,16,1,15,0,0],
[9,9,13,9,14,0,0, 0,0, 0,0],
[32,10,5,10,4,11,5,0,0, 0,0],
[28,8,13,7,13,7,14,7,15,8,15],
[25,12,7,12,6,12,8,12,9,0,0],
[10,12,13,0,0, 0,0, 0,0, 0,0],
[13,16,13,0,0, 0,0, 0,0, 0,0],
[2,1,13,0,0, 0,0, 0,0, 0,0],
[15,2,13,2,14,2,15,0,0, 0,0],
[38,3,15,4,15,4,16,5,16,0,0],
[29,5,9,6,9,7,9,0,0, 0,0],
[23,6,15,6,16,7,16,0,0, 0,0],
[13,7,1,0,0, 0,0, 0,0, 0,0],
[35,7,2,8,2,8,3,8,4,0,0],
[27,7,11,7,12,8,11,0,0, 0,0],
[18,8,1,9,1,10,1,0,0, 0,0],
[12,8,6,8,7,0,0, 0,0, 0,0],
[13,9,5,9,6,0,0, 0,0, 0,0],
[2,9,8,0,0, 0,0, 0,0, 0,0],
[22,10,8,11,8,0,0, 0,0, 0,0],
[4,10,14,0,0, 0,0, 0,0, 0,0],
[29,11,14,12,14,13,14,0,0, 0,0],
[2,12,11,0,0, 0,0, 0,0, 0,0],
[29,12,12,13,12,0,0, 0,0, 0,0],
[10,13,4,0,0, 0,0, 0,0, 0,0],
[11,13,5,0,0, 0,0, 0,0, 0,0],
[23,14,2,15,2,0,0, 0,0, 0,0],
[3,14,5,0,0, 0,0, 0,0, 0,0],
[15,14,6,14,7,0,0, 0,0, 0,0],
[14,14,14,0,0, 0,0, 0,0, 0,0],
[20,15,4,16,4,0,0, 0,0, 0,0],
[19,15,13,15,14,16,14,0,0, 0,0]
]
